p wcnf 108 162 163 
1 53 19 0 
1 17 -86 0 
1 -17 93 0 
1 -38 48 0 
1 -7 35 0 
1 -22 89 0 
1 107 14 0 
1 60 -71 0 
1 72 66 0 
1 6 42 0 
1 65 -2 0 
1 36 -40 0 
1 -107 87 0 
1 -71 -21 0 
1 54 86 0 
1 20 12 0 
1 -35 -33 0 
1 -98 -95 0 
1 78 -17 0 
1 -38 93 0 
1 29 -45 0 
1 -40 -50 0 
1 -82 -65 0 
1 -23 -99 0 
1 -8 -75 0 
1 76 -4 0 
1 -17 100 0 
1 91 -75 0 
1 -44 1 0 
1 44 -88 0 
1 -92 -55 0 
1 98 13 0 
1 47 17 0 
1 -45 -31 0 
1 -11 34 0 
1 -32 -79 0 
1 97 95 0 
1 81 93 0 
1 -53 6 0 
1 -77 36 0 
1 62 -38 0 
1 22 -53 0 
1 -83 -26 0 
1 20 40 0 
1 11 -41 0 
1 -68 95 0 
1 46 -88 0 
1 -17 25 0 
1 56 24 0 
1 64 -79 0 
1 -78 -21 0 
1 75 72 0 
1 87 -102 0 
1 54 -5 0 
1 -91 87 0 
1 62 -13 0 
1 87 -89 0 
1 35 4 0 
1 107 -79 0 
1 2 74 0 
1 -21 -81 0 
1 36 3 0 
1 17 46 0 
1 106 -49 0 
1 27 83 0 
1 69 -24 0 
1 95 -89 0 
1 -20 32 0 
1 18 62 0 
1 21 -7 0 
1 -54 44 0 
1 -67 -14 0 
1 -53 -60 0 
1 32 42 0 
1 12 -93 0 
1 9 36 0 
1 -15 -47 0 
1 -47 -11 0 
1 -7 -9 0 
1 -56 -66 0 
1 -61 72 0 
1 -68 -12 0 
1 -51 -64 0 
1 -9 -15 0 
1 12 83 0 
1 87 -72 0 
1 95 12 0 
1 51 -58 0 
1 -69 -45 0 
1 -82 -11 0 
1 -31 -106 0 
1 -18 -5 0 
1 -37 -8 0 
1 -61 -20 0 
1 3 26 0 
1 -85 72 0 
1 -85 -93 0 
1 47 83 0 
1 -36 74 0 
1 -80 -87 0 
1 -21 22 0 
1 3 -92 0 
1 -21 19 0 
1 -8 87 0 
1 27 55 0 
1 -55 -7 0 
1 12 98 0 
1 -65 72 0 
1 -42 -108 0 
1 -66 35 0 
1 28 74 0 
1 -3 101 0 
1 -91 -41 0 
1 -31 56 0 
1 -3 -70 0 
1 -80 -5 0 
1 -63 88 0 
1 79 -86 0 
1 55 62 0 
1 9 31 0 
1 53 76 0 
1 25 -9 0 
1 -52 20 0 
1 -9 27 0 
1 -83 -18 0 
1 84 104 0 
1 -95 26 0 
1 85 12 0 
1 42 -51 0 
1 10 -65 0 
1 -59 -6 0 
1 -40 107 0 
1 -41 34 0 
1 -10 -65 0 
1 -13 -50 0 
1 23 76 0 
1 -15 -7 0 
1 -56 -21 0 
1 -14 -30 0 
1 3 60 0 
1 -86 95 0 
1 91 2 0 
1 40 68 0 
1 -33 19 0 
1 -87 104 0 
1 43 -83 0 
1 -32 -13 0 
1 -38 -78 0 
1 -16 90 0 
1 -57 44 0 
1 -87 -61 0 
1 106 -61 0 
1 40 -44 0 
1 57 85 0 
1 -37 -4 0 
1 -106 73 0 
1 107 -38 0 
1 79 6 0 
1 -78 -56 0 
1 99 -11 0 
1 40 90 0 
1 85 -6 0 
